c --- [ banner ] -------------------------------------------------------------
c 
c CaDiCaL Radically Simplified CDCL SAT Solver
c Copyright (c) 2016-2021 A. Biere, M. Fleury, N. Froleyks
c 
c Version 1.5.2 a5f15211db36c3956764e18194dd5bd63bf3b5e6
c g++ (GCC) 9.3.0 -Wall -Wextra -O3 -DNDEBUG
c Fri Oct 21 01:27:37 EDT 2022 Linux gra-login3 3.10.0-1160.66.1.el7.x86_64 x86_64
c 
c --- [ limit ] --------------------------------------------------------------
c 
c setting conflict limit to 200000 conflicts (due to '200000')
c 
c --- [ parsing input ] ------------------------------------------------------
c 
c reading DIMACS file from '33.cubes7039.adj'
c opening file to read '33.cubes7039.adj'
c found 'p cnf 6160 1595477' header
c parsed 1595477 clauses in 19.20 seconds process time
c closing file '33.cubes7039.adj'
c after reading 1457566792 bytes 1390.0 MB
c 
c --- [ options ] ------------------------------------------------------------
c 
c all options are set to their default value
c 
c --- [ solving ] ------------------------------------------------------------
c 
c time measured in process time since initialization
c 
c  seconds    reductions  redundant   irredundant
c          MB     restarts       trail       variables
c            level   conflicts       glue         remaining
c 
c * 19.20 1378  0 0   0    0    0  0% 0 1595422 2383 39%
c { 20.69 1446  0 0   0    0    0  0% 0 1595422 2383 39%
c i 23.72 1522 543 0   5   63   55 31% 37 1595422 2350 38%
c i 24.94 1528 357 0  13  105   92 30% 41 1595422 2288 37%
c - 32.02 1516 186 1  31  300  259 28% 32 325547 2288 37%
c i 32.59 1361 149 1  35  414  334 27% 29 325547 2287 37%
c i 32.59 1361 149 1  35  415  334 27% 29 325547 2286 37%
c i 32.60 1361 148 1  35  416  334 27% 29 325547 2285 37%
c i 32.60 1361 148 1  35  417  334 27% 29 325547 2284 37%
c i 32.64 1361 146 1  35  432  347 27% 29 325547 2283 37%
c i 32.90 1361 142 1  41  459  370 28% 30 325547 2282 37%
c i 32.92 1361 140 1  42  464  373 28% 30 325547 2281 37%
c i 33.08 1361 131 1  44  521  413 28% 29 325547 2280 37%
c i 33.09 1361 128 1  44  535  424 28% 29 325547 2279 37%
c i 33.13 1361 128 1  44  540  428 28% 29 325547 2278 37%
c i 33.37 1362 123 1  45  668  531 28% 27 325547 2277 37%
c i 33.69 1362 120 1  56  707  565 28% 27 325547 2276 37%
c i 34.24 1362 113 1  62  828  653 28% 27 325547 2265 37%
c i 35.05 1363 109 1  76  925  730 28% 28 325547 2262 37%
c i 35.05 1363 109 1  76  926  730 28% 28 325547 2261 37%
c 
c  seconds     reductions  redundant   irredundant
c          MB      restarts       trail       variables
c             level   conflicts       glue         remaining
c 
c } 35.32 1364 105 1  79 1000  800 28% 27 325547 2261 37%
c [ 35.32 1364  0 1  79 1000  800  0% 0 325547 2261 37%
c O 35.35 1364 24 1  79 1002  802 20% 4 325547 2261 37%
c i 35.51 1364 13 1  79 1010  806 28% 6 325547 2260 37%
c i 35.57 1364 14 1  79 1028  822 31% 10 325547 2259 37%
c i 35.58 1364 14 1  79 1034  826 32% 10 325547 2258 37%
c i 35.58 1364 14 1  79 1036  827 32% 10 325547 2257 37%
c i 35.62 1364 14 1  79 1064  847 32% 11 325547 2256 37%
c i 35.63 1364 13 1  79 1069  851 32% 11 325547 2255 37%
c i 35.67 1364 13 1  79 1113  881 32% 11 325547 2254 37%
c i 35.69 1364 16 1  79 1161  922 33% 14 325547 2253 37%
c i 35.69 1364 16 1  79 1163  922 33% 14 325547 2252 37%
c i 35.70 1364 16 1  79 1167  924 33% 14 325547 2251 37%
c - 36.33 1483 16 2  79 1208  836 33% 14 274445 2251 37%
c ] 36.57 1483 16 2  79 1523 1015 33% 14 274445 2251 37%
c 1 36.57 1483 16 2  79 1523 1015 33% 14 274445 2251 37%
c 
c --- [ writing output ] -----------------------------------------------------
c 
c writing simplified CNF to DIMACS file 'simp/33.cubes7039.adj.simp1'
c * 36.57 1483 16 2  79 1523 1015 33% 14 274445 2251 37%
c opening file to write 'simp/33.cubes7039.adj.simp1'
c writing 'p cnf 6160 274445' header
c closing file 'simp/33.cubes7039.adj.simp1'
c after writing 136196333 bytes 129.9 MB
c wrote 274445 clauses in 1.03 seconds process time
c 
c --- [ writing extension ] --------------------------------------------------
c 
c writing extension stack to 'simp/33.cubes7039.adj.ext1'
c opening file to write 'simp/33.cubes7039.adj.ext1'
c closing file 'simp/33.cubes7039.adj.ext1'
c after writing 11424 bytes 0.0 MB
c wrote 765 witnesses in 0.00 seconds process time
c 
c --- [ result ] -------------------------------------------------------------
c 
s SATISFIABLE
c 
c --- [ run-time profiling ] -------------------------------------------------
c 
c process time taken by individual solving procedures
c (percentage relative to process time for solving)
c 
c        19.20  110.59% parse
c        17.36  100.00% search
c        14.62   84.21% unstable
c         1.49    8.58% lucky
c         1.25    7.21% stable
c         0.00    0.00% simplify
c   =================================
c        17.36   46.19% solve
c 
c last line shows process time for solving
c (percentage relative to total process time)
c 
c --- [ statistics ] ---------------------------------------------------------
c 
c chronological:               498        32.70 %  of conflicts
c conflicts:                  1523        87.71    per second
c decisions:                 18129      1044.05    per second
c fixed:                       765        12.42 %  of all variables
c learned:                    1471        96.59 %  per conflict
c learned_lits:             208364       100.00 %  learned literals
c minimized:                     0         0.00 %  learned literals
c shrunken:                 112393        53.94 %  learned literals
c minishrunken:              18787         9.02 %  learned literals
c propagations:             252966         0.01 M  per second
c reduced:                     118         7.75 %  per conflict
c rephased:                      1      1523.00    interval
c restarts:                     79        19.28    interval
c stabilizing:                   1        34.34 %  of conflicts
c subsumed:                    303         0.01 %  of all clauses
c 
c seconds are measured in process time for solving
c 
c --- [ resources ] ----------------------------------------------------------
c 
c total process time since initialization:        37.60    seconds
c total real time since initialization:           40.80    seconds
c maximum resident set size of process:         1543.52    MB
c 
c --- [ shutting down ] ------------------------------------------------------
c 
c exit 10
WARNING! DIMACS header mismatch: wrong number of variables.
============================[ Problem Statistics ]=============================
|                                                                             |
|  Number of variables:          6120                                         |
|  Number of clauses:          274445                                         |
|  Parse time:                   1.86 s                                       |
|  Simplification time:          0.06 s                                       |
|                                                                             |
============================[ Search Statistics ]====================================================
| Conflicts |          ORIGINAL         |          LEARNT          | Num Sols |      SUBGRAPHS      |
|           |    Vars  Clauses Literals |    Limit  Clauses Lit/Cl |          | Canonical Noncanon. |
=====================================================================================================
|       100 |    6027   274445 29705389 |     2000       99     99 |        0 |        25         0 |
|       262 |    6026   274457 29706016 |     2000      260    134 |        0 |        39        12 |
|       497 |    6024   274467 29706325 |     2000      493    128 |        0 |        47        22 |
|       834 |    6016   274467 29706325 |     2000      822    116 |        0 |        71        22 |
|      1351 |    6010   274478 29706754 |     2000     1333    107 |        0 |        92        33 |
|      2120 |    6007   274488 29707109 |     3592     1112     66 |        0 |       108        43 |
|      6578 |    6007   277807 29781313 |     4998     3776     18 |        0 |       982      3362 |
|      8969 |    6006   278490 29790691 |     6300     3669     43 |        0 |      1186      4045 |
|     12254 |    6006   279213 29805461 |     7549     3803     33 |        0 |      1440      4768 |
|     16158 |    6003   279273 29807406 |     8783     3940     18 |        0 |      1496      4828 |
|     22175 |    6003   279524 29814075 |     9992     5567     37 |        0 |      1586      5079 |
|     35408 |    6002   284108 29901592 |    12406     8214     25 |        0 |      3265      9663 |
|     48876 |    6002   284602 29912020 |    14808     8684     42 |        0 |      3437     10157 |
|    105422 |    6002   321687 30633622 |    22020    11842     27 |        0 |     12259     47242 |
|    148242 |    6002   335315 30902584 |    25615    19857     37 |        0 |     16103     60870 |
|    230867 |    6002   374151 31640547 |    32814    16681     15 |        0 |     22729     99706 |
|    424351 |    6002   501873 33808926 |    43619    40970     37 |        0 |     49201    227506 |
|    627558 |    6002   606554 35432014 |    53226    52984     79 |        0 |     67851    332187 |
|    778773 |    6002   609980 35496967 |    60411    35584     37 |        0 |     68306    335613 |
=====================================================================================================
Number of solutions   : 0
Canonical subgraphs   : 124060         (22 /sec)
          order  3    : 1              (142857 /sec)
          order  4    : 1              (333333 /sec)
          order  5    : 1              (166667 /sec)
          order  6    : 1              (38462 /sec)
          order  7    : 2              (8368 /sec)
          order  8    : 6              (2580 /sec)
          order  9    : 16             (612 /sec)
          order 10    : 63             (184 /sec)
          order 11    : 320            (67 /sec)
          order 12    : 1534           (33 /sec)
          order 13    : 10004          (29 /sec)
          order 14    : 105305         (22 /sec)
          order 15    : 5912           (21 /sec)
          order 16    : 812            (15 /sec)
          order 17    : 82             (12 /sec)
          order 18    : 0              (-nan /sec)
          order 19    : 0              (-nan /sec)
          order 20    : 0              (-nan /sec)
          order 21    : 0              (-nan /sec)
          order 22    : 0              (-nan /sec)
Noncanonical subgraphs: 672939         (179 /sec)
          order  3    : 0              (-nan /sec)
          order  4    : 0              (-nan /sec)
          order  5    : 0              (-nan /sec)
          order  6    : 0              (-nan /sec)
          order  7    : 0              (-nan /sec)
          order  8    : 0              (-nan /sec)
          order  9    : 0              (-nan /sec)
          order 10    : 0              (-nan /sec)
          order 11    : 0              (-nan /sec)
          order 12    : 0              (-nan /sec)
          order 13    : 35382          (3663 /sec)
          order 14    : 148393         (1155 /sec)
          order 15    : 466567         (132 /sec)
          order 16    : 20258          (238 /sec)
          order 17    : 2082           (118 /sec)
          order 18    : 257            (120 /sec)
          order 19    : 0              (-nan /sec)
          order 20    : 0              (-nan /sec)
          order 21    : 0              (-nan /sec)
Canonicity checking   : 5596.32 s
Noncanonicity checking: 3764.78 s
Total canonicity time : 9361.1 s
database reductions   : 62
restarts              : 2502
conflicts             : 1295460        (131 /sec)
decisions             : 2236620        (0.00 % random) (227 /sec)
propagations          : 132983064      (13484 /sec)
conflict literals     : 86619804       (55.57 % deleted)
actual reward         : 0.082721
Memory used           : 482.00 MB
CPU time              : 9862.55 s

UNSATISFIABLE
